NAME 
ROWS
 N  OBJ
 L  R0      
 L  R1      
 E  R2      
 E  R3      
 E  R4      
 E  R5      
 E  R6      
 E  R7      
 E  R8      
 E  R9      
 E  R10     
 E  R11     
 E  R12     
 E  R13     
 E  R14     
 E  R15     
 E  R16     
COLUMNS
    MARKER    'MARKER'                 'INTORG'
    I0(9)     OBJ       -102
    I0(9)     R0        -193
    I0(9)     R1        -148
    I0(9)     R2        14
    I0(9)     R3        6
    I0(9)     R4        11
    I0(9)     R6        18
    I0(9)     R8        1
    I0(9)     R9        16
    I0(9)     R16       1
    I1(11)    OBJ       86
    I1(11)    R0        82
    I1(11)    R1        93
    I1(11)    R2        17
    I1(11)    R4        17
    I1(11)    R5        4
    I1(11)    R6        12
    I1(11)    R7        -1
    I1(11)    R8        12
    I1(11)    R9        5
    I1(11)    R10       18
    I1(11)    R16       1
    I2(11)    OBJ       -13
    I2(11)    R0        116
    I2(11)    R1        -48
    I2(11)    R2        16
    I2(11)    R3        1
    I2(11)    R4        -1
    I2(11)    R5        10
    I2(11)    R7        12
    I2(11)    R8        19
    I2(11)    R9        10
    I2(11)    R10       11
    I2(11)    R16       1
    I3(9)     OBJ       -128
    I3(9)     R0        8
    I3(9)     R1        -126
    I3(9)     R2        15
    I3(9)     R4        15
    I3(9)     R6        1
    I3(9)     R8        11
    I3(9)     R9        -1
    I3(9)     R10       16
    I3(9)     R16       1
    I4(8)     OBJ       -53
    I4(8)     R0        40
    I4(8)     R1        -13
    I4(8)     R2        10
    I4(8)     R3        10
    I4(8)     R4        3
    I4(8)     R6        12
    I4(8)     R7        13
    I4(8)     R16       1
    I5(11)    OBJ       169
    I5(11)    R0        51
    I5(11)    R1        174
    I5(11)    R2        5
    I5(11)    R3        11
    I5(11)    R4        6
    I5(11)    R6        6
    I5(11)    R7        11
    I5(11)    R8        13
    I5(11)    R9        11
    I5(11)    R10       13
    I5(11)    R16       1
    I6(12)    OBJ       26
    I6(12)    R0        -71
    I6(12)    R1        179
    I6(12)    R2        2
    I6(12)    R3        18
    I6(12)    R4        2
    I6(12)    R5        -1
    I6(12)    R6        16
    I6(12)    R7        4
    I6(12)    R8        10
    I6(12)    R9        19
    I6(12)    R10       -1
    I6(12)    R16       1
    I7(9)     OBJ       103
    I7(9)     R0        136
    I7(9)     R1        123
    I7(9)     R2        7
    I7(9)     R3        9
    I7(9)     R4        8
    I7(9)     R5        17
    I7(9)     R7        4
    I7(9)     R9        8
    I7(9)     R16       1
    I8(8)     OBJ       159
    I8(8)     R0        78
    I8(8)     R1        -171
    I8(8)     R2        9
    I8(8)     R4        1
    I8(8)     R6        6
    I8(8)     R8        17
    I8(8)     R9        2
    I8(8)     R16       1
    MARKER    'MARKER'                 'INTEND'
    C9(11)    OBJ       5
    C9(11)    R0        7
    C9(11)    R1        4
    C9(11)    R4        1
    C9(11)    R5        19
    C9(11)    R6        3
    C9(11)    R7        3
    C9(11)    R8        17
    C9(11)    R9        13
    C9(11)    R11       15
    C9(11)    R12       8
    C9(11)    R13       11
    C10(13)   OBJ       -4
    C10(13)   R0        -10
    C10(13)   R1        9
    C10(13)   R2        19
    C10(13)   R3        4
    C10(13)   R4        12
    C10(13)   R5        5
    C10(13)   R8        17
    C10(13)   R9        18
    C10(13)   R10       5
    C10(13)   R11       1
    C10(13)   R12       12
    C10(13)   R13       16
    C10(13)   R14       16
    C11(14)   OBJ       -1
    C11(14)   R0        6
    C11(14)   R1        9
    C11(14)   R2        4
    C11(14)   R3        19
    C11(14)   R4        14
    C11(14)   R5        8
    C11(14)   R7        2
    C11(14)   R8        10
    C11(14)   R10       9
    C11(14)   R11       7
    C11(14)   R12       8
    C11(14)   R13       14
    C11(14)   R14       7
    C11(14)   R15       2
    C12(12)   R0        -8
    C12(12)   R1        3
    C12(12)   R2        11
    C12(12)   R6        18
    C12(12)   R7        5
    C12(12)   R9        10
    C12(12)   R10       5
    C12(12)   R11       10
    C12(12)   R12       10
    C12(12)   R13       6
    C12(12)   R14       2
    C12(12)   R15       6
    C13(13)   OBJ       -8
    C13(13)   R0        8
    C13(13)   R1        -3
    C13(13)   R3        6
    C13(13)   R4        -1
    C13(13)   R5        11
    C13(13)   R6        12
    C13(13)   R7        18
    C13(13)   R8        7
    C13(13)   R10       10
    C13(13)   R11       2
    C13(13)   R13       18
    C13(13)   R14       -1
    C13(13)   R15       16
    C14(14)   OBJ       -2
    C14(14)   R0        -2
    C14(14)   R1        -3
    C14(14)   R3        13
    C14(14)   R4        4
    C14(14)   R5        16
    C14(14)   R6        5
    C14(14)   R7        3
    C14(14)   R8        4
    C14(14)   R9        3
    C14(14)   R11       18
    C14(14)   R12       -1
    C14(14)   R13       15
    C14(14)   R14       14
    C14(14)   R15       19
    C15(1)    R2        1
    C16(1)    R3        1
    C17(1)    R4        1
    C18(1)    R5        1
    C19(1)    R6        1
    C20(1)    R7        1
    C21(1)    R8        1
    C22(1)    R9        1
    C23(1)    R10       1
    C24(1)    R11       1
    C25(1)    R12       1
    C26(1)    R13       1
    C27(1)    R14       1
    C28(1)    R15       1
    C29(1)    R16       1
RHS
    RHS1      R0        -1.6214912280701751e+02
    RHS1      R1        -4.0270394736842104e+02
    RHS1      R2        58
    RHS1      R3        57
    RHS1      R4        95
    RHS1      R5        83
    RHS1      R6        57
    RHS1      R7        52
    RHS1      R8        65
    RHS1      R9        65
    RHS1      R10       80
    RHS1      R11       99
    RHS1      R12       63
    RHS1      R13       67
    RHS1      R14       55
    RHS1      R15       71
    RHS1      R16       3
BOUNDS
 UP BND1      I0(9)     2
 UP BND1      I1(11)    2
 UP BND1      I2(11)    2
 UP BND1      I3(9)     2
 UP BND1      I4(8)     2
 UP BND1      I5(11)    2
 UP BND1      I6(12)    2
 UP BND1      I7(9)     2
 UP BND1      I8(8)     2
ENDATA
